c b=4,c=69
p cnf 15 69
1 2 4 -8 0
1 4 -10 0
4 -14 0
1 2 -4 8 0
1 2 -4 10 0
1 -4 14 0
1 3 -7 0
2 3 -9 0
3 -13 0
1 -3 7 0
1 2 -3 9 0
1 -3 13 0
2 -6 0
1 2 -11 0
1 2 -12 0
1 -2 4 8 0
3 4 -9 0
1 -2 -4 -8 0
-2 3 -4 9 0
3 -4 10 0
1 3 -11 0
1 -3 4 9 0
1 4 -11 0
-2 -3 -4 -9 0
1 -2 -3 -4 11 0
1 -2 -3 -10 0
-2 6 0
1 -2 12 0
1 -5 0
1 -15 0
2 3 4 -8 0
2 4 -10 0
2 3 -4 8 0
2 -4 14 0
-1 3 7 0
-1 3 11 0
2 3 -12 0
-1 2 -3 4 8 0
2 -3 4 9 0
-1 4 11 0
2 4 -12 0
-1 2 -3 -4 -8 0
-1 2 -4 -9 0
-1 -3 -4 -11 0
-1 2 -3 -4 12 0
-1 -3 -7 0
-1 2 -3 -10 0
2 -3 13 0
2 -15 0
-2 3 4 8 0
-1 -2 4 -9 0
3 4 -10 0
-2 3 -4 -8 0
3 -4 14 0
-2 3 12 0
3 -15 0
-1 -2 -3 4 -8 0
-1 -2 -3 4 10 0
-2 4 12 0
-3 4 13 0
4 -15 0
-1 -2 -3 -4 8 0
-1 -3 -4 -10 0
-1 -2 -3 -4 -12 0
-1 -2 -4 -13 0
-1 -2 -3 -4 15 0
-1 -2 -3 -9 0
-1 -2 -3 -14 0
-1 5 0
